%mem=6GB
%nprocshared=4
#n pbepbe/aug-cc-pvdz int=UltraFine opt=Tight EmpiricalDispersion=GD3

ftfsi

-1 1
N  
S   1 B1
S   1 B2 2 A2
O   3 B3 1 A3 2 D3
O   3 B4 1 A4 2 D4
O   2 B5 1 A5 3 D5
O   2 B6 1 A6 3 D6
F   3 B7 1 A7 2 D7
C   2 B8 1 A8 3 D8
F   9 B9 2 A9 1 D9
F   9 B10 2 A10 1 D10
F   9 B11 2 A11 1 D11
Variables:
B1        1.58147
B2        1.57272
A2      111.64283
B3        1.45766
A3      117.14927
D3      281.25248
B4        1.45856
A4      117.92987
D4       67.69549
B5        1.46541
A5      116.39805
D5       66.97344
B6        1.46552
A6      116.05354
D6      287.98897
B7        1.60296
A7       99.37804
D7      174.54680
B8        1.83518
A8       97.20717
D8      177.60201
B9        1.36604
A9      112.84794
D9      255.78057
B10        1.36907
A10      113.07664
D10       15.56082
B11        1.36587
A11      112.94958
D11      135.46314

end

